* GENERATED BY CHARMM-GUI (http://www.charmm-gui.org) v3.7 on Jun, 01. 2026. JOBID=8028885842
* ORIENT THE MOLECULE ALONG THE Z-AXIS
*

DIMENS CHSIZE 5000000 MAXRES 3000000

! Read topology and parameter files
stream toppar.str

! Read PSF and Coordinates
open read unit 10 card name step1_pdbreader.psf
read psf  unit 10 card

open read unit 10 card name step1_pdbreader.crd
read coor unit 10 card

coor rotate matrix
  0.2416157436 -0.9703720072 9.481E-7
  -0.9703720071 -0.2416157435 1.84927E-5
  -1.77158E-5 -5.3882E-6 -0.9999999998
coor trans xdir 77.236455413 ydir 128.449514528 zdir 102.134679736

stream step2_area.str

open write card unit 10 name step2_orient.pdb
write coor pdb  unit 10 sele .not. segid PWAT end

open write card unit 10 name step2_orient.crd
write coor card unit 10 sele .not. segid PWAT end

stop
